
  32    1
  10

   0   0  11 2 3 4 5 6 7 9 12 13 17 22 
   5   1   6 31 29 28 27 15 11 
   9   2   5 30 25 21 20 8 
   5   2   7 30 29 28 26 20 18 16 
   4   2   3 27 16 14 
   7   2   2 28 10 
   8   1   6 29 27 26 25 23 18 
   5   2   4 28 27 19 18 
   7   1   4 29 28 20 18 
   2   1   3 19 18 16 
   2   2   4 30 26 23 18 
   7   6   4 28 26 25 23 
  10   3   4 27 26 25 23 
   4   1   3 26 25 18 
   9   1   1 16 
   8   2   3 25 24 23 
  10   2   2 28 24 
   1   1   1 24 
   4   2   1 23 
   4   1   1 27 
   9   1   1 26 
   8   3   1 23 
   6   3   1 32
   1   1   1 32
  10   3   1 32
   5   2   1 32
  10   4   1 32
   3   3   1 32
  10   3   1 32
   4   1   1 32
   3   1   1 32
   0   0   0 
